CMD:
./solvers/bin/cadical --plain --no-reduce -t 1600 ./data/cnfs//oski15a01b59s/oski15a01b59s.21.cnf

c --- [ banner ] -------------------------------------------------------------
c 
c CaDiCaL SAT Solver
c Copyright (c) 2016-2024
c A. Biere, M. Fleury, N. Froleyks, K. Fazekas, F. Pollitt, T. Faller
c JKU Linz, University of Freiburg, TU Wien
c 
c Version 2.1.3 5296d3d2a9bf48c154ab2acb5e44625776d821bf
c g++ (Gentoo 12.3.1_p20230526 p2) 12.3.1 20230526 -Wall -Wextra -O3 -DNDEBUG
c Sat Aug 9 07:26:21 PDT 2025 Linux cedar2.int.cedar.computecanada.ca 5.14.0-362.24.2.el9_3.x86_64 x86_64
c 
c --- [ limit ] --------------------------------------------------------------
c 
c setting time limit to 1600 seconds real time (due to '-t 1600')
c 
c --- [ parsing input ] ------------------------------------------------------
c 
c reading DIMACS file from './data/cnfs//oski15a01b59s/oski15a01b59s.21.cnf'
c opening file to read './data/cnfs//oski15a01b59s/oski15a01b59s.21.cnf'
c found 'p cnf 7099480 20252735' header
c parsed 20252735 clauses in 3.66 seconds process time
c 
c --- [ options ] ------------------------------------------------------------
c 
c   --compact=false                (different from default 'true')
c   --decompose=false              (different from default 'true')
c   --deduplicate=false            (different from default 'true')
c   --elim=false                   (different from default 'true')
c   --probe=false                  (different from default 'true')
c   --reduce=false                 (different from default 'true')
c   --subsume=false                (different from default 'true')
c   --ternary=false                (different from default 'true')
c   --transred=false               (different from default 'true')
c   --vivify=false                 (different from default 'true')
c 
c --- [ solving ] ------------------------------------------------------------
c 
c time measured in process time since initialization
c 
c  seconds    reductions  redundant   irredundant
c          MB     restarts       trail          variables
c            level   conflicts       glue             remaining
c 
c *  3.66 2983  0 0   0    0    0  0% 0 18530973 5261987 74%
c {  4.74 3030  0 0   0    0    0  0% 0 18530973 5261987 74%
c i  6.48 3030 8856 0  23  129  128 30% 3 18530973 5261986 74%
c i  6.49 3030 8788 0  24  130  128 30% 3 18530973 5261985 74%
c i  6.49 3030 8401 0  24  137  132 30% 3 18530973 5261984 74%
c i  6.49 3030 8162 0  24  141  134 30% 3 18530973 5261983 74%
c i  6.49 3030 7619 0  24  154  141 30% 3 18530973 5261982 74%
c i  6.49 3030 7421 0  24  158  143 30% 3 18530973 5261981 74%
c i  6.49 3030 6928 0  24  171  151 29% 3 18530973 5261980 74%
c i  6.50 3030 5176 0  24  230  204 28% 3 18530973 5261979 74%
c i  6.50 3030 4272 0  28  281  245 28% 3 18530973 5261976 74%
c i  6.50 3030 4256 0  29  282  245 28% 3 18530973 5261973 74%
c i  6.50 3030 4225 0  29  284  246 28% 3 18530973 5261972 74%
c i  6.51 3030 4134 0  29  290  251 28% 3 18530973 5261969 74%
c i  6.51 3030 4120 0  29  291  251 28% 3 18530973 5261966 74%
c i  6.51 3030 4048 0  29  296  255 28% 3 18530973 5261963 74%
c i  7.15 3032 6495 0  34  383  341 30% 3 18530973 5261962 74%
c i  7.18 3032 6477 0  35  384  341 30% 3 18530973 5261961 74%
c i  7.19 3032 6374 0  35  391  345 30% 3 18530973 5261960 74%
c i  7.19 3032 6307 0  36  395  347 30% 3 18530973 5261959 74%
c 
c  seconds      reductions  redundant   irredundant
c          MB       restarts       trail          variables
c             level    conflicts       glue             remaining
c 
c i  7.20 3032 5849 0  38  426  376 30% 3 18530973 5261956 74%
c i  7.20 3032 5835 0  38  427  376 30% 3 18530973 5261953 74%
c i  7.20 3033 5631 0  38  444  390 30% 3 18530973 5261950 74%
c i  7.36 3033 5481 0  38  483  423 30% 3 18530973 5261949 74%
c i  7.39 3033 5590 0  39  496  432 30% 3 18530973 5261948 74%
c i  7.51 3033 5682 0  39  500  434 30% 3 18530973 5261947 74%
c i  7.51 3033 5834 0  39  505  437 30% 3 18530973 5261946 74%
c i  7.51 3033 5953 0  39  509  439 30% 3 18530973 5261945 74%
c i  7.56 3033 6004 0  46  561  487 31% 3 18530973 5261942 74%
c i  7.65 3033 6025 0  47  571  494 31% 3 18530973 5261941 74%
c i  7.65 3033 6147 0  47  576  497 31% 3 18530973 5261940 74%
c i  7.65 3033 6242 0  47  580  499 31% 3 18530973 5261939 74%
c i  7.65 3033 6314 0  47  583  501 31% 3 18530973 5261938 74%
c i  7.66 3033 6408 0  47  587  503 31% 3 18530973 5261937 74%
c i  7.66 3033 6546 0  47  595  507 31% 3 18530973 5261936 74%
c i  7.66 3033 6615 0  47  598  509 31% 3 18530973 5261935 74%
c i  7.66 3033 6705 0  47  602  511 31% 3 18530973 5261934 74%
c i  7.66 3033 6839 0  47  610  515 31% 3 18530973 5261933 74%
c i  7.67 3033 6905 0  47  613  517 31% 3 18530973 5261932 74%
c i  7.67 3033 6992 0  47  617  519 32% 3 18530973 5261931 74%
c 
c  seconds      reductions  redundant   irredundant
c          MB       restarts       trail          variables
c             level    conflicts       glue             remaining
c 
c i  7.67 3033 7120 0  47  625  523 32% 3 18530973 5261930 74%
c i  7.67 3033 7184 0  47  628  525 32% 3 18530973 5261929 74%
c i  7.67 3033 7268 0  47  632  527 32% 3 18530973 5261928 74%
c i  7.67 3033 7392 0  47  640  531 32% 3 18530973 5261927 74%
... skipped 831803 lines ...
v -7099041 -7099042 -7099043 7099044 7099045 -7099046 -7099047 -7099048
v -7099049 7099050 7099051 -7099052 -7099053 -7099054 -7099055 7099056 7099057
v -7099058 -7099059 -7099060 -7099061 7099062 7099063 -7099064 -7099065
v -7099066 -7099067 7099068 7099069 -7099070 -7099071 -7099072 -7099073
v 7099074 7099075 -7099076 -7099077 -7099078 -7099079 7099080 7099081 -7099082
v -7099083 -7099084 -7099085 7099086 7099087 -7099088 -7099089 7099090
v -7099091 7099092 7099093 -7099094 -7099095 7099096 -7099097 7099098 7099099
v -7099100 -7099101 7099102 -7099103 7099104 7099105 -7099106 -7099107 7099108
v -7099109 7099110 7099111 -7099112 -7099113 7099114 -7099115 7099116 7099117
v -7099118 -7099119 7099120 -7099121 7099122 7099123 -7099124 -7099125 7099126
v -7099127 7099128 7099129 -7099130 -7099131 7099132 -7099133 7099134 7099135
v -7099136 -7099137 7099138 -7099139 7099140 7099141 -7099142 -7099143 7099144
v -7099145 7099146 7099147 -7099148 -7099149 7099150 -7099151 7099152 7099153
v -7099154 -7099155 7099156 -7099157 7099158 7099159 -7099160 -7099161 7099162
v -7099163 7099164 7099165 -7099166 -7099167 7099168 -7099169 7099170 7099171
v -7099172 -7099173 7099174 -7099175 7099176 7099177 -7099178 -7099179 7099180
v -7099181 7099182 7099183 -7099184 -7099185 7099186 -7099187 7099188 7099189
v -7099190 -7099191 7099192 -7099193 7099194 7099195 -7099196 -7099197 7099198
v -7099199 7099200 7099201 -7099202 -7099203 7099204 -7099205 7099206 7099207
v -7099208 -7099209 7099210 -7099211 7099212 7099213 -7099214 -7099215 7099216
v -7099217 7099218 7099219 -7099220 -7099221 7099222 -7099223 7099224 7099225
v -7099226 -7099227 7099228 -7099229 7099230 7099231 -7099232 -7099233 7099234
v -7099235 7099236 7099237 -7099238 -7099239 7099240 -7099241 7099242 7099243
v -7099244 -7099245 7099246 -7099247 7099248 7099249 -7099250 -7099251 7099252
v -7099253 7099254 7099255 -7099256 -7099257 7099258 -7099259 7099260 7099261
v -7099262 -7099263 7099264 -7099265 7099266 7099267 -7099268 -7099269 7099270
v -7099271 7099272 7099273 -7099274 -7099275 7099276 -7099277 7099278 7099279
v -7099280 -7099281 7099282 -7099283 7099284 7099285 -7099286 -7099287 7099288
v -7099289 7099290 7099291 -7099292 -7099293 7099294 -7099295 7099296 7099297
v -7099298 -7099299 7099300 -7099301 7099302 7099303 -7099304 -7099305
v -7099306 -7099307 7099308 7099309 -7099310 -7099311 -7099312 -7099313
v 7099314 7099315 -7099316 -7099317 -7099318 -7099319 7099320 7099321 -7099322
v -7099323 -7099324 -7099325 7099326 7099327 -7099328 -7099329 -7099330
v -7099331 7099332 7099333 -7099334 -7099335 -7099336 -7099337 -7099338
v -7099339 -7099340 7099341 -7099342 -7099343 7099344 -7099345 -7099346
v -7099347 7099348 7099349 -7099350 -7099351 7099352 -7099353 -7099354 7099355
v -7099356 -7099357 7099358 -7099359 -7099360 7099361 -7099362 -7099363
v 7099364 -7099365 -7099366 7099367 -7099368 -7099369 7099370 -7099371
v -7099372 7099373 -7099374 -7099375 7099376 -7099377 -7099378 7099379
v -7099380 -7099381 7099382 -7099383 -7099384 7099385 -7099386 -7099387
v 7099388 -7099389 -7099390 -7099391 7099392 -7099393 -7099394 7099395
v -7099396 -7099397 -7099398 7099399 7099400 -7099401 -7099402 7099403
v -7099404 -7099405 7099406 -7099407 -7099408 7099409 -7099410 -7099411
v 7099412 -7099413 -7099414 7099415 -7099416 -7099417 7099418 -7099419
v -7099420 7099421 -7099422 -7099423 7099424 -7099425 -7099426 7099427
v -7099428 -7099429 7099430 -7099431 -7099432 7099433 -7099434 -7099435
v 7099436 -7099437 -7099438 7099439 -7099440 -7099441 -7099442 -7099443
v 7099444 7099445 -7099446 -7099447 -7099448 -7099449 7099450 -7099451 7099452
v 7099453 -7099454 -7099455 -7099456 -7099457 -7099458 -7099459 7099460
v 7099461 -7099462 -7099463 -7099464 -7099465 -7099466 -7099467 -7099468
v 7099469 -7099470 -7099471 -7099472 7099473 7099474 -7099475 -7099476
v -7099477 7099478 7099479 -7099480 0
c 
c --- [ run-time profiling ] -------------------------------------------------
c 
c process time taken by individual solving procedures
c (percentage relative to process time for solving)
c 
c        21.83  100.00% search
c        16.25   74.46% stable
c         4.50   20.60% unstable
c         3.66   16.78% parse
c         1.08    4.95% lucky
c         0.00    0.00% simplify
c   =================================
c        21.83   84.47% solve
c 
c last line shows process time for solving
c (percentage relative to total process time)
c 
c --- [ statistics ] ---------------------------------------------------------
c 
c chronological:              1634        60.59 %  of conflicts
c conflicts:                  2697       123.56    per second
c decisions:                789389     36165.00    per second
c fixed:                   1841644        25.94 %  of all variables
c learned:                    2501        92.73 %  per conflict
c learned_lits:              26389       100.00 %  learned literals
c minimized:                     0         0.00 %  learned literals
c shrunken:                   4049        15.34 %  learned literals
c minishrunken:               1031         3.91 %  learned literals
c otfs:                         60         2.22 %  of conflict
c propagations:           75989073         3.48 M  per second
c rephased:                      1      2697.00    interval
c restarts:                     55        49.04    interval
c stabilizing:                   1        62.92 %  of conflicts
c subsumed:                    217         0.00 %  of all clauses
c strengthened:                 60         0.00 %  of all clauses
c 
c seconds are measured in process time for solving
c 
c --- [ resources ] ----------------------------------------------------------
c 
c total process time since initialization:        25.84    seconds
c total real time since initialization:           26.00    seconds
c maximum resident set size of process:         3041.92    MB
c 
c --- [ shutting down ] ------------------------------------------------------
c 
c exit 10
